135698
34 112 148 26 97 126 85 103 94 48 93 109 46 68 84 14 15 61 147 143 104 92 99 123 16 39 122 63 74 60 67 119 135 41 142 55 71 79 138 2 102 13 117 50 47 17 80 78 21 145 121 5 37 113 115 130 96 32 25 106 3 0 77 33 101 120 69 45 18 1 89 136 44 88 12 129 75 24 7 70 134 6 118 76 111 137 124 58 108 125 132 144 9 62 95 40 73 53 91 87 36 127 149 54 72 100 43 140 22 146 28 11 116 110 35 42 83 66 31 82 65 86 114 131 4 19 139 52 133 56 57 64 27 81 128 30 107 8 10 20 29 51 38 90 105 141 49 59 98 23 
